m = 5; % number of couriers
n = 7; % number of packages

l = [13, 17, 18, 11, 17]; % maximum carriable weight per courier
s = [4, 8, 9, 3, 4, 9, 6]; % weight of each package

D = % distance matrix 
	 [| 9, 5, 11, 6, 12, 12, 10, 11
	 | 5, 8, 3, 4, 5, 12, 10, 12
	 | 11, 3, 11, 10, 7, 12, 3, 4
	 | 6, 4, 10, 3, 9, 12, 3, 10
	 | 12, 5, 7, 9, 10, 3, 10, 9
	 | 12, 12, 12, 12, 3, 12, 12, 10
	 | 10, 10, 3, 3, 10, 12, 8, 11
	 | 10, 11, 3, 8, 5, 4, 5, 5
	 |];